100
128
47
26
20
1
47
13
16
35
51
14
6
42
2
18
18
9
25
26
10
12
3
49
44
15
48
20
17
19
26
40
64
21
51
34
21
48
3
39
9
9
4
13
8
2
27
40
2
11
23
3
24
20
3
14
15
24
37
37
3
4
64
16
6
26
27
51
47
48
62
50
30
1
14
4
44
39
49
44
54
10
41
23
58
1
25
63
10
40
63
40
41
41
31
63
36
52
8
17
48
45